[runlim] version:		1.10
[runlim] time limit:		311040000 seconds
[runlim] real time limit:	600 seconds
[runlim] space limit:		7759 MB
[runlim] argv[0]:		python3
[runlim] argv[1]:		-u
[runlim] argv[2]:		cp.py
[runlim] argv[3]:		P4
[runlim] start:			Sun Mar 22 23:19:40 2026
[runlim] main pid:		22599
Reading dataset from data/P4.txt...
Greedy span: 535 (536-1)
--------------------------------
Starting CP Optimizer with Initial UB = 536...
Mô hình CP đã xây dựng xong, bắt đầu giải...
 ! --------------------------------------------------- CP Optimizer 22.1.1.0 --
 ! Minimization problem - 482 variables, 57234 constraints
 ! Presolve      : 20224 extractables eliminated, 19362 constraints generated
 ! LogVerbosity         = Terse
 ! Initial process time : 0.37s (0.37s extraction + 0.00s propagation)
 !  . Log search space  : 3491.2 (before), 3491.2 (after)
 !  . Memory usage      : 18.9 MB (before), 18.9 MB (after)
 ! Using parallel search with 12 workers.
 ! ----------------------------------------------------------------------------
 !          Best Branches  Non-fixed    W       Branch decision
                        0        482                 -
 + New bound is 533
 *           533      323  1.00s        1      (gap is 0.00%)
 ! ----------------------------------------------------------------------------
 ! Search completed, 1 solution found.
 ! Best objective         : 533 (optimal - effective tol. is 0)
 ! Best bound             : 533
 ! ----------------------------------------------------------------------------
 ! Number of branches     : 7597
 ! Number of fails        : 193
 ! Total memory usage     : 324.2 MB (324.1 MB CP Optimizer + 0.1 MB Concert)
 ! Time spent in solve    : 1.01s (0.65s engine + 0.37s extraction)
 ! Search speed (br. / s) : 11870.3
 ! ----------------------------------------------------------------------------
--------------------------------
Optimal span found: 532 (533-1)
Total time taken: 2.64s
CP solution is valid.
[runlim] end:			Sun Mar 22 23:19:43 2026
[runlim] status:		ok
[runlim] result:		0
[runlim] children:		20
[runlim] real:			3.37 seconds
[runlim] time:			7.22 seconds
[runlim] space:			482.1 MB
[runlim] samples:		28
